14
0 38 77 70 42 85 57 77 43 41 73 74 63 69
38 0 54 58 33 13 45 56 39 67 63 46 74 56
77 54 0 53 44 61 52 55 39 24 74 30 24 17
70 58 53 0 54 40 45 42 60 47 25 15 65 58
42 33 44 54 0 47 53 84 96 64 41 66 37 35
85 13 61 40 47 0 45 25 95 69 71 37 48 39
57 45 52 45 53 45 0 65 32 6 28 44 46 58
77 56 55 42 84 25 65 0 40 86 32 26 40 41
43 39 39 60 96 95 32 40 0 36 43 15 51 60
41 67 24 47 64 69 6 86 36 0 39 31 49 56
73 63 74 25 41 71 28 32 43 39 0 12 56 46
74 46 30 15 66 37 44 26 15 31 12 0 69 85
63 74 24 65 37 48 46 40 51 49 56 69 0 37
69 56 17 58 35 39 58 41 60 56 46 85 37 0
